branch-and-cut/resultados/B/b15.sol
# Objective value = 318
e[0,34] 1
e[34,0] 1
e[1,3] 0
e[3,1] 0
e[1,42] 1
e[42,1] 1
e[1,72] 1
e[72,1] 1
e[3,65] 1
e[65,3] 1
e[3,78] 1
e[78,3] 1
e[4,0] 1
e[0,4] 1
e[7,38] 0
e[38,7] 0
e[8,36] 1
e[36,8] 1
e[8,52] 0
e[52,8] 0
e[8,86] 0
e[86,8] 0
e[10,71] 0
e[71,10] 0
e[12,99] 1
e[99,12] 1
e[17,32] 0
e[32,17] 0
e[18,5] 1
e[5,18] 1
e[18,12] 1
e[12,18] 1
e[18,56] 1
e[56,18] 1
e[18,59] 0
e[59,18] 0
e[19,13] 0
e[13,19] 0
e[20,35] 0
e[35,20] 0
e[22,11] 1
e[11,22] 1
e[24,4] 0
e[4,24] 0
e[24,25] 0
e[25,24] 0
e[24,91] 0
e[91,24] 0
e[25,20] 0
e[20,25] 0
e[25,46] 1
e[46,25] 1
e[25,93] 1
e[93,25] 1
e[25,96] 0
e[96,25] 0
e[27,90] 0
e[90,27] 0
e[30,21] 0
e[21,30] 0
e[30,63] 1
e[63,30] 1
e[30,83] 0
e[83,30] 0
e[34,9] 1
e[9,34] 1
e[34,22] 1
e[22,34] 1
e[34,77] 0
e[77,34] 0
e[35,68] 0
e[68,35] 0
e[36,60] 1
e[60,36] 1
e[37,15] 1
e[15,37] 1
e[38,10] 0
e[10,38] 0
e[38,95] 0
e[95,38] 0
e[40,8] 1
e[8,40] 1
e[40,27] 1
e[27,40] 1
e[40,43] 0
e[43,40] 0
e[40,50] 1
e[50,40] 1
e[40,94] 1
e[94,40] 1
e[43,54] 1
e[54,43] 1
e[43,72] 1
e[72,43] 1
e[43,76] 1
e[76,43] 1
e[43,85] 0
e[85,43] 0
e[43,87] 1
e[87,43] 1
e[44,11] 1
e[11,44] 1
e[45,87] 0
e[87,45] 0
e[46,57] 0
e[57,46] 0
e[47,1] 1
e[1,47] 1
e[47,16] 1
e[16,47] 1
e[48,22] 1
e[22,48] 1
e[49,41] 1
e[41,49] 1
e[51,53] 0
e[53,51] 0
e[51,62] 0
e[62,51] 0
e[51,89] 0
e[89,51] 0
e[52,29] 1
e[29,52] 1
e[53,28] 0
e[28,53] 0
e[53,61] 0
e[61,53] 0
e[54,17] 1
e[17,54] 1
e[55,35] 1
e[35,55] 1
e[55,37] 1
e[37,55] 1
e[55,45] 0
e[45,55] 0
e[55,64] 0
e[64,55] 0
e[55,81] 1
e[81,55] 1
e[55,83] 0
e[83,55] 0
e[58,6] 1
e[6,58] 1
e[58,28] 1
e[28,58] 1
e[59,6] 0
e[6,59] 0
e[59,10] 0
e[10,59] 0
e[60,53] 0
e[53,60] 0
e[61,44] 0
e[44,61] 0
e[63,3] 1
e[3,63] 1
e[63,7] 0
e[7,63] 0
e[63,23] 1
e[23,63] 1
e[63,40] 1
e[40,63] 1
e[63,66] 1
e[66,63] 1
e[63,92] 0
e[92,63] 0
e[64,7] 0
e[7,64] 0
e[64,49] 1
e[49,64] 1
e[65,26] 1
e[26,65] 1
e[65,74] 0
e[74,65] 0
e[66,18] 1
e[18,66] 1
e[66,67] 0
e[67,66] 0
e[66,84] 0
e[84,66] 0
e[66,90] 1
e[90,66] 1
e[67,24] 0
e[24,67] 0
e[67,33] 0
e[33,67] 0
e[67,79] 0
e[79,67] 0
e[69,88] 0
e[88,69] 0
e[69,97] 0
e[97,69] 0
e[70,64] 1
e[64,70] 1
e[72,51] 0
e[51,72] 0
e[72,52] 1
e[52,72] 1
e[72,87] 0
e[87,72] 0
e[73,48] 1
e[48,73] 1
e[75,34] 1
e[34,75] 1
e[75,82] 0
e[82,75] 0
e[76,58] 1
e[58,76] 1
e[78,48] 1
e[48,78] 1
e[79,75] 1
e[75,79] 1
e[80,47] 1
e[47,80] 1
e[81,14] 0
e[14,81] 0
e[81,29] 1
e[29,81] 1
e[81,89] 1
e[89,81] 1
e[84,98] 0
e[98,84] 0
e[86,80] 0
e[80,86] 0
e[87,10] 1
e[10,87] 1
e[89,6] 0
e[6,89] 0
e[90,19] 1
e[19,90] 1
e[90,39] 0
e[39,90] 0
e[93,73] 1
e[73,93] 1
e[94,55] 1
e[55,94] 1
e[94,57] 0
e[57,94] 0
e[94,70] 1
e[70,94] 1
e[95,69] 0
e[69,95] 0
e[97,2] 0
e[2,97] 0
e[97,16] 1
e[16,97] 1
e[97,31] 1
e[31,97] 1
e[97,91] 0
e[91,97] 0
e[99,33] 0
e[33,99] 0
