branch-and-cut/resultados/B/b15.log

Gurobi 10.0.3 (win64) logging started Sun Dec 17 20:01:54 2023

Set parameter LogFile to value "./resultados/log.log"
Set parameter TimeLimit to value 600
Gurobi Optimizer version 10.0.3 build v10.0.3rc0 (win64)

CPU model: AMD Ryzen 5 5600 6-Core Processor, instruction set [SSE2|AVX|AVX2]
Thread count: 6 physical cores, 12 logical processors, using up to 12 threads

Academic license 2433534 - for non-commercial use only - registered to gm___@gmail.com
Optimize a model with 400 rows, 250 columns and 13422 nonzeros
Model fingerprint: 0x41d053d7
Variable types: 0 continuous, 250 integer (250 binary)
Coefficient statistics:
  Matrix range     [1e+00, 5e+01]
  Objective range  [5e-01, 5e+00]
  Bounds range     [1e+00, 1e+00]
  RHS range        [1e+00, 1e+00]
Found heuristic solution: objective 683.0000000
Presolve removed 365 rows and 135 columns
Presolve time: 0.00s
Presolved: 35 rows, 115 columns, 99 nonzeros
Variable types: 0 continuous, 115 integer (115 binary)
Root relaxation presolved: 41 rows, 115 columns, 125 nonzeros


Root relaxation: objective 1.580000e+02, 32 iterations, 0.00 seconds (0.00 work units)

    Nodes    |    Current Node    |     Objective Bounds      |     Work
 Expl Unexpl |  Obj  Depth IntInf | Incumbent    BestBd   Gap | It/Node Time

     0     0  158.00000    0    -  683.00000  158.00000  76.9%     -    0s
     0     0  165.50000    0   14  683.00000  165.50000  75.8%     -    0s
H    0     0                     366.0000000  240.00000  34.4%     -    0s
     0     0  240.00000    0    5  366.00000  240.00000  34.4%     -    0s
H    0     0                     344.0000000  267.50000  22.2%     -    0s
     0     0  267.50000    0    5  344.00000  267.50000  22.2%     -    0s
H    0     0                     334.0000000  277.33333  17.0%     -    0s
     0     0  277.33333    0    5  334.00000  277.33333  17.0%     -    0s
     0     0  282.00000    0    8  334.00000  282.00000  15.6%     -    1s
     0     0  285.35714    0   14  334.00000  285.35714  14.6%     -    1s
     0     0  286.75000    0   11  334.00000  286.75000  14.1%     -    1s
     0     0  288.75000    0   12  334.00000  288.75000  13.5%     -    1s
     0     0  291.50000    0    9  334.00000  291.50000  12.7%     -    1s
     0     0  291.75000    0   18  334.00000  291.75000  12.6%     -    1s
     0     0  292.80000    0   24  334.00000  292.80000  12.3%     -    1s
     0     0  294.75000    0   13  334.00000  294.75000  11.8%     -    1s
     0     0  294.75000    0   30  334.00000  294.75000  11.8%     -    1s
     0     0  295.62500    0   22  334.00000  295.62500  11.5%     -    1s
     0     0  298.80556    0   26  334.00000  298.80556  10.5%     -    1s
     0     0  300.05000    0   24  334.00000  300.05000  10.2%     -    1s
     0     0  302.91304    0   20  334.00000  302.91304  9.31%     -    1s
     0     0  305.00000    0   24  334.00000  305.00000  8.68%     -    1s
     0     0  306.32075    0   31  334.00000  306.32075  8.29%     -    2s
H    0     0                     331.0000000  306.69851  7.34%     -    2s
     0     0  306.69851    0   23  331.00000  306.69851  7.34%     -    2s
     0     0  307.30282    0   31  331.00000  307.30282  7.16%     -    2s
     0     0  307.89128    0   40  331.00000  307.89128  6.98%     -    2s
     0     0  308.66251    0   34  331.00000  308.66251  6.75%     -    2s
     0     0  309.33427    0   30  331.00000  309.33427  6.55%     -    2s
     0     0  309.75380    0   35  331.00000  309.75380  6.42%     -    2s
     0     0  309.83356    0   43  331.00000  309.83356  6.39%     -    2s
     0     0  310.09774    0   41  331.00000  310.09774  6.31%     -    2s
     0     0  310.31103    0   42  331.00000  310.31103  6.25%     -    2s
     0     2  310.65884    0   44  331.00000  310.65884  6.15%     -    3s
H    1     5                     329.0000000  310.67502  5.57%   0.0    3s
H    6     8                     325.0000000  311.11573  4.27%  36.2    3s
H    9    14                     324.0000000  311.37802  3.90%  39.4    4s
H   15    20                     319.0000000  312.52189  2.03%  51.9    4s
    25    32  314.78791    5   34  319.00000  313.47114  1.73%  56.7    5s
H   31    40                     318.0000000  314.13636  1.21%  56.1    5s
   185    44     cutoff    8       318.00000  316.45696  0.49%  33.7   10s

Cutting planes:
  User: 63
  Gomory: 8
  Lift-and-project: 1
  MIR: 1
  Flow cover: 18
  Zero half: 20
  Lazy constraints: 649

Explored 269 nodes (8219 simplex iterations) in 12.33 seconds (0.97 work units)
Thread count was 12 (of 12 available processors)

Solution count 10: 318 319 324 ... 683

Optimal solution found (tolerance 1.00e-04)
Best objective 3.180000000000e+02, best bound 3.180000000000e+02, gap 0.0000%

User-callback calls 1244, time in user-callback 11.54 sec
